Route 1: 95 65 106 18 32 3 49 9 89 78
Route 2: 8 76 85 20 69 48 57
Route 3: 50 35 12 100 59 15 28
Route 4: 19 11 42 87 37 92 70
Route 5: 22 55 86 68 84 41 14 64
Route 6: 26 63 53 34 23
Route 7: 91 25 105 2 16 52 45
Route 8: 83 30 102 13 54 77 88 61
Route 9: 39 31 43 99 24 56 4 33
Route 10: 38 80 47 72 75 58 73
Route 11: 10 67 98 94 29 104 44
Route 12: 96 62 60 90 74 36 17 21
Route 13: 79 27 103 93 6 101 46 97
Route 14: 5 66 71 7 82 51 40 81
Cost 28448.87
